nApps = 36
nRes = 6
nActs = 76
nNetworks = 4

assignmentToResources = [1,1,2,1,2,2,2,2,2,1,2,2,2,2,1,2,2,2,2,2,1,1,1,1,1,1,1,1,2,1,3,3,4,4,4,4,4,4,4,3,4,4,4,4,4,3,4,5,3,6,3,6,4,5,3,6,4,5,3,6,6,6,5,5,5,5,5,5,5,6,5,5,5,5,5,6];

processingTimes = [168,120,120,144,144,104,136,104,96,104,136,88,136,104,144,104,96,136,168,144,120,104,128,120,128,88,88,120,112,128,150,150,3,3,150,4,500,5,5,5,500,5,3,4,150,4,4,4,4,4,3,3,3,3,4,4,3,3,3,3,150,150,3,3,150,4,500,5,5,5,500,5,3,4,150,4];

periods = [2000,1000,10000,5000,10000,10000,10000,1000,10000,10000,2000,10000,2000,10000,10000,10000,10000,10000,1000,10000,10000,1000,10000,10000,10000,10000,10000,5000,10000,5000,1000,1000,10000,10000,1000,10000,10000,10000,10000,10000,10000,10000,10000,10000,1000,10000,2000,2000,2000,2000,1000,1000,1000,1000,10000,10000,10000,10000,10000,10000,1000,1000,10000,10000,1000,10000,10000,10000,10000,10000,10000,10000,10000,10000,1000,10000];

assignmentToClusters = [1,2,3,4,5,6,7,2,8,9,1,10,1,11,12,10,13,5,14,5,15,2,16,17,10,18,10,19,8,20,21,22,23,24,25,26,27,28,29,30,31,32,33,34,35,36,1,1,1,1,2,2,2,2,10,10,10,10,10,10,21,22,23,24,25,26,27,28,29,30,31,32,33,34,35,36];

precedenceAdjList = [[47],[],[],[],[19],[],[],[51],[28],[],[49],[55],[],[],[],[59],[],[4],[],[],[],[53],[],[],[],[],[57],[],[],[],[],[],[],[],[],[],[],[],[],[],[],[],[],[],[],[],[12],[46],[0],[48],[1],[50],[7],[52],[26],[54],[15],[56],[24],[58],[30],[31],[32],[33],[34],[35],[36],[37],[38],[39],[40],[41],[42],[43],[44],[45]];